50
19675

243 689
53 481
727 833
717 364
253 482
825 230
561 883
284 588
324 781
273 386
433 664
271 177
33 864
404 405
450 990
933 27
544 796
396 568
947 970
406 24
271 802
441 373
57 470
341 101
958 597
33 978
658 321
916 613
916 850
830 807
636 33
848 744
629 564
595 914
212 498
420 790
818 333
456 6
996 818
579 393
975 609
462 607
938 771
800 629
269 758
162 133
975 868
839 153
179 636
768 105
